0 102 
1 103 
2 102 
3 104 
4 100 
5 99 
6 98 
7 98 
8 93 
9 91 
10 89 
11 89 
12 89 
13 85 
14 82 
15 89 
16 91 
17 83 
18 80 
19 81 
20 78 
21 71 
22 70 
23 66 
24 65 
25 60 
26 56 
27 54 
28 54 
29 58 
30 55 
31 48 
32 43 
33 41 
34 40 
35 37 
36 36 
37 37 
38 36 
39 35 
40 32 
41 30 
42 27 
43 28 
44 28 
45 29 
46 29 
47 26 
48 29 
49 28 
50 27 
51 28 
52 27 
53 22 
54 25 
55 26 
56 25 
57 21 
58 17 
59 13 
60 15 
61 13 
62 16 
63 14 
64 11 
65 11 
66 13 
67 12 
68 12 
69 11 
70 6 
71 7 
72 5 
73 4 
74 3 
75 3 
76 1 
77 2 
78 0 
79 0 

